certificates/rado_a13_c154_N26.cnf
c Rad2 upper bound instance: x1 + 13*x2 - x3 = 154, interval [1,26]
p cnf 26 104
1 3 12 0
-1 -3 -12 0
1 13 16 0
-1 -13 -16 0
2 4 12 0
-2 -4 -12 0
2 13 17 0
-2 -13 -17 0
3 5 12 0
-3 -5 -12 0
3 13 18 0
-3 -13 -18 0
4 6 12 0
-4 -6 -12 0
4 13 19 0
-4 -13 -19 0
5 7 12 0
-5 -7 -12 0
5 13 20 0
-5 -13 -20 0
6 8 12 0
-6 -8 -12 0
6 13 21 0
-6 -13 -21 0
7 9 12 0
-7 -9 -12 0
7 13 22 0
-7 -13 -22 0
8 10 12 0
-8 -10 -12 0
8 13 23 0
-8 -13 -23 0
9 11 12 0
-9 -11 -12 0
9 13 24 0
-9 -13 -24 0
10 12 0
-10 -12 0
10 13 25 0
-10 -13 -25 0
11 12 13 0
-11 -12 -13 0
11 13 26 0
-11 -13 -26 0
1 11 12 0
-1 -11 -12 0
12 14 0
-12 -14 0
2 11 13 0
-2 -11 -13 0
12 13 15 0
-12 -13 -15 0
3 11 14 0
-3 -11 -14 0
12 14 16 0
-12 -14 -16 0
4 11 15 0
-4 -11 -15 0
12 15 17 0
-12 -15 -17 0
5 11 16 0
-5 -11 -16 0
12 16 18 0
-12 -16 -18 0
6 11 17 0
-6 -11 -17 0
12 17 19 0
-12 -17 -19 0
7 11 18 0
-7 -11 -18 0
12 18 20 0
-12 -18 -20 0
8 11 19 0
-8 -11 -19 0
12 19 21 0
-12 -19 -21 0
9 11 20 0
-9 -11 -20 0
12 20 22 0
-12 -20 -22 0
10 11 21 0
-10 -11 -21 0
12 21 23 0
-12 -21 -23 0
11 22 0
-11 -22 0
12 22 24 0
-12 -22 -24 0
11 12 23 0
-11 -12 -23 0
12 23 25 0
-12 -23 -25 0
11 13 24 0
-11 -13 -24 0
12 24 26 0
-12 -24 -26 0
1 10 25 0
-1 -10 -25 0
11 14 25 0
-11 -14 -25 0
2 10 26 0
-2 -10 -26 0
11 15 26 0
-11 -15 -26 0
