certificates/rado_a13_c154_N26.drat
12 -25 0
11 24 14 0
-12 -26 0
11 -26 0
-26 0
-11 12 0
12 0
-10 0
-14 0
2 0
-4 0
11 0
-9 0
-13 0
-1 0
-22 0
-23 0
24 0
19 0
7 0
8 0
25 0
16 0
-21 0
-17 0
0
